experiment/data/hgs-res/Vrp-Set-Golden-n201/Vrp-Set-Golden-n201-hgs/0.hgs1.tour
Route #1: 12 11 31 32 33 53 73 93 113 133 153 173 193 192 172 152 132 112 92 72 52 51 71 91 111 131 151 171 191 190 170 150 130 110 90 70 50 30 10
Route #2: 17 16 15 35 36 37 57 77 97 117 137 157 177 197 196 176 156 136 116 96 76 56 55 75 95 115 135 155 175 195 194 174 154 134 114 94 74 54 34 14 13
Route #3: 18 19 39 38 58 78 98 118 138 158 178 198 199 179 159 139 119 99 79 59 60 80 100 120 140 160 180 200 181 161 141 121 101 81 61 41 21 40 20 1 2
Route #4: 5 25 45 65 85 105 125 145 165 185 184 164 144 124 104 84 64 44 43 63 83 103 123 143 163 183 182 162 142 122 102 82 62 42 22 23 24 4 3
Route #5: 9 8 28 29 49 69 89 109 129 149 169 189 188 168 148 128 108 88 68 48 47 67 87 107 127 147 167 187 186 166 146 126 106 86 66 46 26 27 7 6
Cost 6460.98
